
Gurobi 8.1.1 (mac64, Python) logging started Wed Jul 24 10:16:24 2019

Academic license - for non-commercial use only

Gurobi 8.1.1 (mac64, Python) logging started Wed Jul 24 10:38:30 2019

Academic license - for non-commercial use only

Gurobi 8.1.1 (mac64, Python) logging started Thu Jul 25 10:41:17 2019

Academic license - for non-commercial use only

Gurobi 8.1.1 (mac64, Python) logging started Fri Jul 26 10:42:38 2019

Academic license - for non-commercial use only
